(set-option :produce-models true); benchmark generated from python API
(set-info :status unknown)
(declare-fun l_1_0_9 () Real)
(declare-fun l_1_0_8 () Real)
(declare-fun l_1_0_7 () Real)
(declare-fun l_1_0_6 () Real)
(declare-fun l_1_0_5 () Real)
(declare-fun l_1_0_4 () Real)
(declare-fun l_1_0_3 () Real)
(declare-fun l_1_0_2 () Real)
(declare-fun l_1_0_1 () Real)
(declare-fun _a_0_ () Real)
(declare-fun l_1_0_10 () Real)
(declare-fun _a_1_ () Real)
(declare-fun l_1_0_11 () Real)
(declare-fun l_1_1_16 () Real)
(declare-fun l_1_1_15 () Real)
(declare-fun l_1_1_9 () Real)
(declare-fun l_1_1_8 () Real)
(declare-fun l_1_1_4 () Real)
(declare-fun l_1_1_2 () Real)
(declare-fun l_1_1_1 () Real)
(declare-fun l_1_1_13 () Real)
(declare-fun l_1_1_3 () Real)
(declare-fun l_1_1_17 () Real)
(declare-fun l_1_1_12 () Real)
(declare-fun l_1_1_11 () Real)
(declare-fun l_1_1_10 () Real)
(declare-fun l_1_1_7 () Real)
(declare-fun l_1_1_6 () Real)
(declare-fun l_1_1_5 () Real)
(declare-fun l_1_1_14 () Real)
(declare-fun l_1_2_1 () Real)
(declare-fun l_1_2_2 () Real)
(declare-fun l_1_2_3 () Real)
(declare-fun l_1_2_4 () Real)
(declare-fun l_1_2_5 () Real)
(declare-fun l_1_2_6 () Real)
(declare-fun l_1_2_7 () Real)
(declare-fun l_1_2_8 () Real)
(declare-fun l_1_2_9 () Real)
(declare-fun l_1_2_10 () Real)
(declare-fun l_1_2_11 () Real)
(declare-fun l_1_2_12 () Real)
(declare-fun l_1_2_13 () Real)
(declare-fun l_1_2_14 () Real)
(declare-fun l_1_2_15 () Real)
(declare-fun l_1_2_17 () Real)
(assert
 (let ((?x21 (* l_1_0_9 l_1_0_9)))
 (let ((?x27 (- (- (- _a_0_ l_1_0_1) (* 1.0 l_1_0_2)) (* 1.0 l_1_0_3))))
 (let ((?x22 (- (- (- (- ?x27 l_1_0_4) (* 1.0 l_1_0_5)) (* 1.0 l_1_0_6)) l_1_0_7)))
 (= (- (- ?x22 l_1_0_8) ?x21) 0.0)))))
(assert
 (= (- _a_1_ (* (* 2.0 l_1_0_10) l_1_0_9)) 0.0))
(assert
 (let ((?x130 (* 2.0 l_1_0_5)))
 (let ((?x128 (+ (- (* (- l_1_0_10) l_1_0_10) (* l_1_0_11 l_1_0_11)) l_1_0_2)))
 (= (- (+ (+ (+ ?x128 l_1_0_3) ?x130) l_1_0_6) 1.0) 0.0))))
(assert
 (= (- l_1_0_5) 0.0))
(assert
 (>= l_1_0_1 0.0))
(assert
 (>= l_1_0_2 0.0))
(assert
 (>= l_1_0_3 0.0))
(assert
 (>= l_1_0_4 0.0))
(assert
 (>= l_1_0_5 0.0))
(assert
 (>= l_1_0_6 0.0))
(assert
 (>= l_1_0_7 0.0))
(assert
 (>= l_1_0_8 0.0))
(assert
 (>= l_1_0_9 0.0))
(assert
 (>= l_1_0_11 0.0))
(assert
 (let ((?x70 (* _a_1_ l_1_1_9)))
 (let ((?x94 (* _a_1_ l_1_1_2)))
 (let ((?x11 (* _a_1_ l_1_1_1)))
 (let ((?x98 (+ (- (- (* (* (* (- 2.0) _a_0_) _a_1_) l_1_1_13) ?x11) ?x94) (* (* 9.0 _a_1_) l_1_1_4))))
 (let ((?x33 (- (- (+ ?x98 (* (* 9.0 _a_1_) l_1_1_8)) ?x70) (* (* 2.0 l_1_1_15) l_1_1_16))))
 (= (+ ?x33 8.0) 0.0)))))))
(assert
 (let ((?x151 (* l_1_1_17 l_1_1_17)))
 (let ((?x148 (* l_1_1_16 l_1_1_16)))
 (let ((?x154 (- (+ (- (- l_1_1_1 l_1_1_10) l_1_1_11) (* 18.0 l_1_1_12)) (* l_1_1_13 (+ (* (- 2.0) _a_0_) (* _a_1_ _a_1_))))))
 (let ((?x222 (- (- (+ (- (- ?x154 ?x148) ?x151) l_1_1_2) l_1_1_3) (* l_1_1_4 (+ _a_0_ 9.0)))))
 (= (- (+ (- ?x222 (* l_1_1_8 (+ _a_0_ 9.0))) l_1_1_9) 1.0) 0.0))))))
(assert
 (let ((?x331 (* 9.0 l_1_1_3)))
 (let ((?x329 (* l_1_1_15 l_1_1_15)))
 (let ((?x324 (* 81.0 l_1_1_12)))
 (let ((?x321 (* 9.0 l_1_1_11)))
 (let ((?x319 (* 9.0 l_1_1_10)))
 (let ((?x317 (* _a_0_ l_1_1_9)))
 (let ((?x314 (+ (- (* (- _a_0_) l_1_1_1) (* _a_0_ l_1_1_2)) (* (* 9.0 _a_0_) l_1_1_4))))
 (let ((?x322 (+ (+ (- (+ ?x314 (* (* 9.0 _a_0_) l_1_1_8)) ?x317) ?x319) ?x321)))
 (let ((?x330 (- (- (- (- ?x322 ?x324) (* (* l_1_1_13 _a_0_) _a_0_)) l_1_1_14) ?x329)))
 (= (- (- (- (- (+ ?x330 ?x331) l_1_1_5) l_1_1_6) l_1_1_7) 15.0) 0.0)))))))))))
(assert
 (let ((?x202 (* _a_1_ l_1_1_8)))
 (= (- (- (* (* 2.0 _a_1_) l_1_1_13) (* _a_1_ l_1_1_4)) ?x202) 0.0)))
(assert
 (= (+ (+ (- (- l_1_1_12) l_1_1_13) l_1_1_4) l_1_1_8) 0.0))
(assert
 (>= l_1_1_1 0.0))
(assert
 (>= l_1_1_2 0.0))
(assert
 (>= l_1_1_3 0.0))
(assert
 (>= l_1_1_4 0.0))
(assert
 (>= l_1_1_5 0.0))
(assert
 (>= l_1_1_6 0.0))
(assert
 (>= l_1_1_7 0.0))
(assert
 (>= l_1_1_8 0.0))
(assert
 (>= l_1_1_9 0.0))
(assert
 (>= l_1_1_10 0.0))
(assert
 (>= l_1_1_11 0.0))
(assert
 (>= l_1_1_12 0.0))
(assert
 (>= l_1_1_13 0.0))
(assert
 (>= l_1_1_14 0.0))
(assert
 (>= l_1_1_15 0.0))
(assert
 (>= l_1_1_17 0.0))
(assert
 false)
(assert
 (>= l_1_2_1 0.0))
(assert
 (>= l_1_2_2 0.0))
(assert
 (>= l_1_2_3 0.0))
(assert
 (>= l_1_2_4 0.0))
(assert
 (>= l_1_2_5 0.0))
(assert
 (>= l_1_2_6 0.0))
(assert
 (>= l_1_2_7 0.0))
(assert
 (>= l_1_2_8 0.0))
(assert
 (>= l_1_2_9 0.0))
(assert
 (>= l_1_2_10 0.0))
(assert
 (>= l_1_2_11 0.0))
(assert
 (>= l_1_2_12 0.0))
(assert
 (>= l_1_2_13 0.0))
(assert
 (>= l_1_2_14 0.0))
(assert
 (>= l_1_2_15 0.0))
(assert
 (>= l_1_2_17 0.0))
(check-sat)
(get-model)